clingo version 5.5.2
Reading from ...nt/beegfs/home/jubruns/encoding/mif.lp ...
Solving...
Answer: 1
move(1,(10,8),(9,8),2) move(1,(9,8),(9,9),3) move(1,(9,9),(8,9),4) move(1,(8,9),(7,9),5) move(1,(7,9),(6,9),6) move(1,(6,9),(7,9),8) move(1,(7,9),(7,8),11) move(1,(7,8),(7,7),12) move(1,(7,7),(7,6),13) move(1,(7,6),(7,5),14) move(1,(7,5),(7,4),15) move(1,(7,4),(6,4),16) move(1,(6,4),(6,3),19) move(1,(6,3),(5,3),20) move(2,(10,3),(9,3),2) move(2,(9,3),(9,4),3) move(2,(9,4),(8,4),4) move(2,(8,4),(7,4),5) move(2,(7,4),(7,5),6) move(2,(7,5),(7,6),7) move(2,(7,6),(6,6),8) move(2,(6,6),(6,7),17) move(2,(6,7),(6,8),18) move(2,(6,8),(6,9),19) move(2,(6,9),(5,9),20) move(3,(2,3),(3,3),1) move(3,(3,3),(4,3),2) move(3,(4,3),(5,3),3) move(3,(5,3),(6,3),4) move(3,(6,3),(7,3),5) move(3,(7,3),(7,4),6) move(3,(7,4),(7,5),7) move(3,(7,5),(7,6),8) move(3,(7,6),(7,7),9) move(3,(7,7),(7,8),10) move(3,(7,8),(6,8),11) move(3,(6,8),(6,9),12) move(3,(6,9),(5,9),13) move(3,(5,9),(4,9),14) move(3,(4,9),(3,9),15) move(3,(3,9),(2,9),16) move(3,(2,9),(1,9),17) move(3,(1,9),(1,8),18) move(3,(1,8),(1,7),19) move(3,(1,7),(1,6),20) move(4,(7,1),(7,2),2) move(4,(7,2),(7,3),3) move(4,(7,3),(7,4),4) move(4,(7,4),(7,5),5) move(4,(7,5),(7,6),6) move(4,(7,6),(8,6),7) move(4,(8,6),(8,7),8) move(4,(8,7),(8,8),9) move(4,(8,8),(8,9),10) move(4,(8,9),(9,9),11) move(4,(9,9),(9,8),13) move(4,(9,8),(10,8),14) move(4,(10,8),(11,8),15) move(4,(11,8),(12,8),16) move(4,(12,8),(12,9),17) move(4,(12,9),(11,9),18) move(4,(11,9),(11,10),19) move(4,(11,10),(11,11),20) move(5,(12,8),(12,7),2) move(5,(12,7),(12,6),3) move(5,(12,6),(11,6),5) move(5,(11,6),(12,6),7) move(5,(12,6),(11,6),8) move(5,(11,6),(11,7),9) move(5,(11,7),(11,6),10) move(5,(11,6),(12,6),16) move(5,(12,6),(12,7),17) move(5,(12,7),(12,8),18) move(5,(12,8),(11,8),19) move(5,(11,8),(10,8),20) move(6,(7,12),(8,12),2) move(6,(8,12),(9,12),3) move(6,(9,12),(10,12),4) move(6,(10,12),(11,12),5) move(6,(11,12),(11,11),6) move(6,(11,11),(11,10),7) move(6,(11,10),(11,9),8) move(6,(11,9),(11,8),9) move(6,(11,8),(10,8),10) move(6,(10,8),(9,8),11) move(6,(9,8),(9,7),12) move(6,(9,7),(9,6),13) move(6,(9,6),(8,6),14) move(6,(8,6),(7,6),15) move(6,(7,6),(7,5),16) move(6,(7,5),(7,4),17) move(6,(7,4),(8,4),18) move(6,(8,4),(8,3),19) move(6,(8,3),(8,2),20) move(7,(12,11),(12,12),2) move(7,(12,12),(12,11),4) move(7,(12,11),(12,12),5) move(7,(12,12),(12,11),6) move(7,(12,11),(12,12),7) move(7,(12,12),(12,11),8) move(7,(12,11),(12,12),10) move(7,(12,12),(12,11),11) move(7,(12,11),(12,12),12) move(7,(12,12),(12,11),13) move(7,(12,11),(12,12),14) move(7,(12,12),(12,11),15) move(7,(12,11),(12,12),16) move(7,(12,12),(12,11),19) move(7,(12,11),(12,12),20) move(8,(7,4),(6,4),2) move(8,(6,4),(6,3),16) move(8,(6,3),(5,3),17) move(8,(5,3),(6,3),18) move(8,(6,3),(7,3),19) move(9,(4,2),(4,3),3) move(9,(4,3),(5,3),4) move(9,(5,3),(6,3),5) move(9,(6,3),(7,3),6) move(9,(7,3),(7,4),7) move(9,(7,4),(7,5),8) move(9,(7,5),(7,6),9) move(9,(7,6),(8,6),10) move(9,(8,6),(9,6),11) move(9,(9,6),(8,6),12) move(9,(8,6),(8,7),13) move(9,(8,7),(7,7),14) move(9,(7,7),(6,7),15) move(9,(6,7),(6,8),16) move(9,(6,8),(6,9),17) move(9,(6,9),(5,9),18) move(9,(5,9),(4,9),19) move(9,(4,9),(4,8),20) move(10,(11,10),(11,9),4) move(10,(11,9),(11,8),5) move(10,(11,8),(10,8),6) move(10,(10,8),(9,8),7) move(10,(9,8),(9,7),8) move(10,(9,7),(8,7),9) move(10,(8,7),(7,7),10) move(10,(7,7),(7,6),11) move(10,(7,6),(7,5),12) move(10,(7,5),(7,4),13) move(10,(7,4),(8,4),14) move(10,(8,4),(9,4),15) move(10,(9,4),(9,3),16) move(10,(9,3),(10,3),17) move(10,(10,3),(11,3),18) move(10,(11,3),(12,3),19) move(10,(12,3),(12,2),20) move(11,(12,4),(11,4),2) move(11,(11,4),(11,3),3) move(11,(11,3),(10,3),4) move(11,(10,3),(9,3),5) move(11,(9,3),(9,4),6) move(11,(9,4),(8,4),7) move(11,(8,4),(7,4),8) move(11,(7,4),(7,5),9) move(11,(7,5),(7,6),10) move(11,(7,6),(8,6),11) move(11,(8,6),(8,7),12) move(11,(8,7),(9,7),13) move(11,(9,7),(9,8),14) move(11,(9,8),(10,8),15) move(11,(10,8),(11,8),16) move(11,(11,8),(12,8),17) move(11,(12,8),(12,9),18) move(11,(12,9),(12,8),19) move(11,(12,8),(12,7),20) move(12,(9,11),(8,11),2) move(12,(8,11),(7,11),3) move(12,(7,11),(6,11),4) move(12,(6,11),(7,11),8) move(12,(7,11),(8,11),9) move(12,(8,11),(9,11),11) move(12,(9,11),(9,12),12) move(12,(9,12),(10,12),13) move(12,(10,12),(11,12),14) move(12,(11,12),(11,11),15) move(12,(11,11),(11,10),16) move(12,(11,10),(11,9),17) move(12,(11,9),(11,8),18) move(12,(11,8),(11,7),19) move(12,(11,7),(11,6),20) move(13,(1,9),(2,9),2) move(13,(2,9),(3,9),3) move(13,(3,9),(4,9),4) move(13,(4,9),(5,9),5) move(13,(5,9),(4,9),6) move(13,(4,9),(5,9),7) move(13,(5,9),(6,9),8) move(13,(6,9),(6,8),9) move(13,(6,8),(6,7),10) move(13,(6,7),(7,7),11) move(13,(7,7),(7,6),12) move(13,(7,6),(7,5),13) move(13,(7,5),(7,4),14) move(13,(7,4),(8,4),15) move(13,(8,4),(9,4),16) move(13,(9,4),(9,3),17) move(13,(9,3),(10,3),18) move(13,(10,3),(11,3),19) move(13,(11,3),(12,3),20) move(14,(10,12),(11,12),4) move(14,(11,12),(11,11),5) move(14,(11,11),(11,10),6) move(14,(11,10),(11,9),7) move(14,(11,9),(11,8),8) move(14,(11,8),(10,8),9) move(14,(10,8),(9,8),10) move(14,(9,8),(9,7),11) move(14,(9,7),(9,6),12) move(14,(9,6),(8,6),13) move(14,(8,6),(7,6),14) move(14,(7,6),(7,5),15) move(14,(7,5),(7,4),16) move(14,(7,4),(8,4),17) move(14,(8,4),(9,4),18) move(14,(9,4),(9,3),19) move(14,(9,3),(10,3),20)
SATISFIABLE

Models       : 1+
Calls        : 1
Time         : 0.890s (Solving: 0.04s 1st Model: 0.04s Unsat: 0.00s)
CPU Time     : 0.863s

Choices      : 865      (Domain: 864)
Conflicts    : 43       (Analyzed: 43)
Restarts     : 0       
Model-Level  : 214.0   
Problems     : 1        (Average Length: 0.00 Splits: 0)
Lemmas       : 43       (Deleted: 0)
  Binary     : 0        (Ratio:   0.00%)
  Ternary    : 0        (Ratio:   0.00%)
  Conflict   : 43       (Average Length:   32.7 Ratio: 100.00%) 
  Loop       : 0        (Average Length:    0.0 Ratio:   0.00%) 
  Other      : 0        (Average Length:    0.0 Ratio:   0.00%) 
Backjumps    : 43       (Average: 15.14 Max:  89 Sum:    651)
  Executed   : 43       (Average: 15.14 Max:  89 Sum:    651 Ratio: 100.00%)
  Bounded    : 0        (Average:  0.00 Max:   0 Sum:      0 Ratio:   0.00%)

Rules        : 297604   (Original: 249772)
  Choice     : 280     
  Heuristic  : 14101    (Original: 14309)
Atoms        : 126879   (Original: 112134 Auxiliary: 14745)
Bodies       : 177809   (Original: 144655)
  Count      : 1470     (Original: 2465)
Equivalences : 103316   (Atom=Atom: 315 Body=Body: 330 Other: 102671)
Tight        : Yes
Variables    : 173141   (Eliminated:    0 Frozen: 99693)
Constraints  : 430420   (Binary:  83.1% Ternary:  12.5% Other:   4.4%)

